c SAT Generator for power-law distributed variable frequencies
c -g u -v 20 -c 91 -k 3 -p 2.750000 -b 3.200000 -f /home/schmidt/Devel/ni-kop-sat/data/ensemble/ruf20-91/ruf20-91-842 -u 1 -U 1 -s 2533231046
p cnf 20 91
8 9 13 0
-7 -11 -19 0
-2 15 -19 0
-3 11 18 0
1 12 -18 0
2 -4 -12 0
-5 -6 17 0
10 -14 -17 0
-4 10 16 0
-2 -4 20 0
11 -12 -20 0
1 14 -19 0
-11 15 -18 0
5 7 17 0
-3 -9 10 0
12 -13 18 0
-3 -15 20 0
7 -8 20 0
8 -14 17 0
14 -17 -18 0
10 17 -19 0
2 10 19 0
1 13 -15 0
2 6 13 0
8 -9 18 0
-1 12 -13 0
-6 -18 -19 0
7 -8 -15 0
-6 -13 17 0
-8 10 16 0
10 11 -15 0
-9 19 20 0
1 -12 -13 0
-4 8 -9 0
4 -8 -12 0
-14 15 20 0
6 8 -20 0
-3 -4 -12 0
-1 17 18 0
5 -6 8 0
-2 -14 19 0
-6 7 -14 0
3 -11 16 0
-11 13 -15 0
-5 -16 -18 0
-1 6 7 0
-15 -16 -20 0
-4 8 9 0
-12 -13 19 0
1 -2 -8 0
3 -10 -16 0
-2 6 16 0
2 -19 20 0
-8 15 17 0
7 9 15 0
9 16 -19 0
-2 13 17 0
-9 -12 -17 0
-7 17 20 0
4 7 16 0
5 12 -17 0
-4 5 -18 0
-13 18 -20 0
4 -13 -16 0
7 -13 17 0
3 9 10 0
-4 -12 -15 0
6 10 18 0
1 -8 20 0
-6 7 20 0
7 10 -12 0
-12 -18 -20 0
4 12 17 0
-4 -5 9 0
-11 -14 -19 0
9 18 -19 0
2 7 -11 0
-1 -2 -20 0
4 7 -17 0
-9 -14 -18 0
-7 -11 -16 0
-2 11 -19 0
8 -16 -17 0
-10 15 -19 0
-1 2 16 0
3 -7 -14 0
-2 16 17 0
14 18 20 0
1 14 17 0
3 -13 16 0
2 -7 18 0
